HUN,8,6,672
5,93,2,19,3,24,0,74,4,6,1,93
1,43,5,93,2,9,4,10,0,100,3,64
5,62,0,75,2,63,1,12,3,6,4,60
0,53,5,62,4,35,2,77,1,27,3,76
3,92,4,32,5,11,0,62,1,4,2,30
3,4,5,71,4,84,1,28,0,86,2,91
4,52,0,84,5,38,2,22,1,28,3,76
2,15,4,45,5,5,3,19,0,43,1,71
